98718.03
16 4 5 3 6 15 17 27 26 7 2 133 121 117 104 109 128 129 108 118 120 132 130 131 119 106 107 105 98 96 97 85 72 73 68 84 86 74 75 95 94 99 87 83 69 82 76 93 92 88 81 77 70 78 79 71 80 89 101 90 91 100 103 111 110 116 127 126 122 115 112 113 102 114 123 135 124 125 134 1 10 11 0 12 21 33 22 23 32 35 44 45 34 46 55 64 56 57 47 54 65 58 59 53 42 43 25 24 20 13 9 8 19 14 18 31 36 48 52 66 60 61 41 40 49 51 67 62 63 50 38 39 37 30 28 29